c Very hard unsatisfiable 3-SAT instance
c 10 variables, 43 clauses (UNSAT, phase-transition benchmark)
p cnf 10 43
1 2 3 0
1 2 -4 0
1 -3 5 0
1 -3 -6 0
-1 4 7 0
-1 4 -8 0
-1 -5 9 0
-1 -5 -10 0
2 3 -7 0
2 -6 8 0
-2 5 -9 0
-2 6 10 0
3 4 -5 0
3 -7 6 0
-3 8 -10 0
4 5 7 0
-4 6 -8 0
5 9 10 0
-5 -9 1 0
6 7 -2 0
-6 8 3 0
7 9 -4 0
-7 10 5 0
8 -9 6 0
-8 10 -7 0
9 2 -10 0
10 3 1 0
-1 -2 -3 0
1 -4 6 0
-2 3 -5 0
2 -7 9 0
-3 4 8 0
3 -10 1 0
-4 5 -2 0
4 -6 7 0
-5 8 10 0
5 -9 3 0
6 1 -8 0
-6 -10 4 0
7 2 5 0
-7 3 -6 0
8 4 -9 0
-8 5 10 0
9 6 -1 0
-9 7 2 0
10 8 -3 0

